! Solving for graph /home/truongxuanhieu/CPLEX-MIP-for-MinSpanLabeling/benchmarks/abp/U-662_bus.mtx.rnd
! Target value is set to 275
! Lower bound is set to 276
! Upper bound is set to 828
! Time limit is set to 1800
! Vertices mode is set to Has hole
Version identifier: 22.2.0.0 | 2026-05-04 | 5dff98e58
CPXPARAM_TimeLimit                               1800
Tried aggregator 2 times.
MIP Presolve eliminated 1 rows and 1812 columns.
Aggregator did 1812 substitutions.
Reduced MIP has 3380 rows, 2475 columns, and 7666 nonzeros.
Reduced MIP has 906 binaries, 1569 generals, 0 SOSs, and 1812 indicators.
Presolve time = 0.01 sec. (6.56 ticks)
Found incumbent of value 828.000000 after 0.02 sec. (12.92 ticks)
Probing time = 0.01 sec. (2.52 ticks)
Tried aggregator 1 time.
Detecting symmetries...
Reduced MIP has 3380 rows, 2475 columns, and 7666 nonzeros.
Reduced MIP has 906 binaries, 1569 generals, 0 SOSs, and 1812 indicators.
Presolve time = 0.01 sec. (6.51 ticks)
Probing time = 0.01 sec. (2.15 ticks)
Clique table members: 20.
MIP emphasis: balance optimality and feasibility.
MIP search method: dynamic search.
Parallel mode: deterministic, using up to 8 threads.
Root relaxation solution time = 0.02 sec. (8.66 ticks)

        Nodes                                         Cuts/
   Node  Left     Objective  IInf  Best Integer    Best Bound    ItCnt     Gap

*     0+    0                          828.0000      276.0000            66.67%
      0     0      276.0000   906      828.0000      276.0000      906   66.67%
      0     0      276.0000  1112      828.0000     Cuts: 829     1867   66.67%
      0     0      276.0000   590      828.0000     Cuts: 378     2246   66.67%
      0     0      276.0000   469      828.0000  Impl Bds: 45     2298   66.67%
      0     0      276.0000   426      828.0000   Impl Bds: 9     2309   66.67%
      0     0      276.0000   418      828.0000   Impl Bds: 1     2310   66.67%
      0     2      276.0000   290      828.0000      276.0000     2310   66.67%
Elapsed time = 0.41 sec. (241.10 ticks, tree = 0.02 MB, solutions = 1)
    886   789      551.0000    82      828.0000      276.0000     8819   66.67%
*  1404+ 1247                          826.0000      276.0000            66.59%

Performing restart 1

Repeating presolve.
Tried aggregator 1 time.
MIP Presolve eliminated 48 rows and 35 columns.
MIP Presolve modified 2703 coefficients.
Reduced MIP has 3332 rows, 2440 columns, and 7557 nonzeros.
Reduced MIP has 893 binaries, 1547 generals, 0 SOSs, and 1812 indicators.
Presolve time = 0.01 sec. (6.34 ticks)
Tried aggregator 1 time.
Reduced MIP has 3332 rows, 2440 columns, and 7557 nonzeros.
Reduced MIP has 893 binaries, 1547 generals, 0 SOSs, and 1812 indicators.
Presolve time = 0.01 sec. (6.47 ticks)
Represolve time = 0.03 sec. (19.45 ticks)
   1779     0      385.9201  1170      826.0000     Cuts: 933    18817   44.42%
   1779     0      430.4011  1256      826.0000     Cuts: 894    19284   44.42%
   1779     0      459.1114  1608      826.0000     Cuts: 933    19825   44.42%
   1779     0      460.0000  1391      826.0000     Cuts: 933    20462   44.31%
   1779     0      460.0000  1261      826.0000     Cuts: 933    21153   44.31%
   1779     0      460.0000  1026      826.0000     Cuts: 933    21840   44.31%
   1779     0      482.7500  1566      826.0000     Cuts: 933    22385   41.56%
   1779     0      506.0000  1128      826.0000     Cuts: 933    22845   38.74%
   1779     0      506.0000  1238      826.0000     Cuts: 933    23372   38.74%
   1779     0      506.1928  1640      826.0000     Cuts: 706    24084   38.72%
   1779     0      517.2500  1445      826.0000     Cuts: 933    24643   37.38%
   1779     0      517.2500  1457      826.0000     Cuts: 933    25098   37.38%
   1779     0      517.2500  1447      826.0000     Cuts: 465    25538   37.38%
   1779     0      517.2500  1419      826.0000     Cuts: 700    26007   37.38%
   1779     0      517.2500  1475      826.0000     Cuts: 828    26469   37.38%
   1779     2      518.0000   709      826.0000      551.0000    26469   33.29%
   1874    71      551.0000    89      826.0000      551.0000    27753   33.29%
   2391   481      551.0000    60      826.0000      551.0000    29949   33.29%
   3028   999      551.0000    15      826.0000      551.0000    33015   33.29%
   3981  1445    infeasible            826.0000      551.0000    37715   33.29%
   4855  1783      551.0000    40      826.0000      551.0000    42596   33.29%
   5885  2244    infeasible            826.0000      551.0000    47992   33.29%
   6758  2640    infeasible            826.0000      551.0000    54387   33.29%
   9127  3212        cutoff            826.0000      551.0000    95720   33.29%
Elapsed time = 8.17 sec. (4797.40 ticks, tree = 5.68 MB, solutions = 2)
  10586  3167        cutoff            826.0000      551.0000   145795   33.29%
  11886  3059      574.7018   998      826.0000      551.0000   200266   33.29%
  13207  3014      689.0000   121      826.0000      551.0000   254597   33.29%
  14720  3029    infeasible            826.0000      551.0000   306560   33.29%
  16348  3029        cutoff            826.0000      551.0000   367534   33.29%
  17965  3174      590.0000   123      826.0000      551.0000   417073   33.29%
  19995  3214      551.0000   127      826.0000      551.0000   472694   33.29%
  21147  2665      609.8318   986      826.0000      551.0000   548810   33.29%
  22404  2127      689.0000    42      826.0000      551.0000   640220   33.29%
  24759  2531      736.0000   161      826.0000      552.0000   694606   33.17%
Elapsed time = 25.63 sec. (14348.05 ticks, tree = 3.92 MB, solutions = 2)
  27270  2805    infeasible            826.0000      590.0000   781425   28.57%
  28930  2833      590.0000    92      826.0000      590.0000   821408   28.57%
  31272  2862      735.0000    66      826.0000      590.0000   912984   28.57%
  33280  2620      590.0000   116      826.0000      590.0000   973265   28.57%
  35415  2577      735.0000    73      826.0000      599.0000  1051266   27.48%
  38260  2083    infeasible            826.0000      643.0000  1129335   22.15%
  40701   940    infeasible            826.0000      689.0000  1196078   16.59%
  45049  1259      735.0000    66      826.0000      728.0000  1235597   11.86%
  47236   988      735.0000    73      826.0000      735.0000  1319840   11.02%
  52677   813    infeasible            826.0000      735.0000  1393619   11.02%
Elapsed time = 43.30 sec. (23889.05 ticks, tree = 0.96 MB, solutions = 2)
  55482   450      735.0000    93      826.0000      735.0000  1469864   11.02%
  59222    55      825.0000    97      826.0000      825.0000  1540532    0.12%

Clique cuts applied:  4
Cover cuts applied:  222
Implied bound cuts applied:  556
Flow cuts applied:  119
Mixed integer rounding cuts applied:  849
Zero-half cuts applied:  10
Gomory fractional cuts applied:  61

Root node processing (before b&c):
  Real time             =    0.41 sec. (239.59 ticks)
Parallel b&c, 8 threads:
  Real time             =   46.77 sec. (25567.64 ticks)
  Sync time (average)   =   12.61 sec.
  Wait time (average)   =    0.01 sec.
                          ------------
Total (root+branch&cut) =   47.18 sec. (25807.23 ticks)
! --------------------------------------------------------
! Solve = 1
! Status = Optimal
! Cplex status = Optimal
! Obj = 826
! BestBound = 826
! --------------------------------------------------------
! --------------------------------------------------------
! Best span = 826
! Labeling: 1 1 551 826 1 1 1 1 1 826 826 1 1 1 1 276 276 826 1 1 1 1 826 1 1 826 276 826 1 1 551 1 276 551 826 1 551 826 826 1 1 826 826 1 1 826 1 276 826 1 1 1 826 826 826 1 1 1 1 1 1 551 826 1 551 551 1 826 1 1 826 551 826 826 276 826 551 826 826 1 826 460 551 276 551 551 1 1 826 276 826 826 1 826 551 826 1 551 1 1 1 826 826 551 1 1 826 826 276 1 826 826 1 1 826 1 551 1 1 1 1 551 551 1 276 276 551 276 551 276 1 276 1 276 1 551 1 1 1 1 1 1 1 1 826 1 1 1 551 551 551 551 826 551 551 826 826 1 826 276 551 1 551 276 1 826 276 1 826 1 1 345 1 826 551 826 1 551 1 826 826 1 551 551 551 1 1 1 826 551 826 826 1 551 1 1 826 826 1 551 299 826 1 1 1 826 1 826 1 24 276 1 826 826 826 826 826 1 826 1 1 826 1 826 1 276 551 826 826 1 826 276 551 826 826 1 826 826 1 1 552 551 551 1 551 1 551 1 826 826 826 1 1 826 1 826 276 551 1 826 826 826 826 1 276 1 1 551 826 1 276 1 826 826 826 826 551 1 826 1 1 826 826 1 1 826 826 551 1 826 826 551 1 1 1 1 826 1 551 551 826 551 826 1 826 826 826 276 826 551 826 1 1 551 1 551 826 1 1 1 826 826 826 24 826 826 1 1 1 826 826 1 1 551 826 1 1 1 826 826 1 826 1 551 1 1 276 551 1 826 826 276 826 1 1 276 1 1 1 1 826 1 1 1 1 276 826 1 826 1 1 826 276 1 1 551 826 1 1 1 276 1 1 826 185 551 1 1 826 551 826 551 1 1 826 551 826 826 826 551 826 826 550 826 551 826 1 1 1 826 826 826 1 2 276 551 1 2 551 1 1 276 1 1 1 826 1 826 826 1 276 826 1 1 826 24 1 1 1 1 1 826 826 826 276 276 1 277 1 826 1 1 551 1 826 826 826 1 1 826 1 826 1 1 551 551 1 1 551 551 826 826 1 826 826 551 1 1 1 551 826 551 826 276 551 1 1 826 1 1 1 551 1 70 1 1 1 826 551 1 1 826 1 1 826 1 1 826 1 826 551 826 1 1 1 1 826 826 551 1 1 551 1 826 1 551 551 1 1 1 826 826 1 2 1 1 826 551 551 1 826 551 1 1 826 1 1 1 1 1 1 551 826 1 826 551 826 826 551 826 551 826 1 826 826 276 1 1 1 1 1 826 1 276 276 551 1 826 1 1 826 826 826 551 551 1 551 551 551 1 826 276 1 826 1 1 826 1 826 1 1 1 1 1 826 826 826 1 1 1 1 276 551 276 826 826 1 276 826 1 551 1 826 551 1 826 1 826 1 1 1 276 826 1 826 1 826 826 1 1 826 826 551 1 551 276 276 826 1 1 826 551 551 1 276 550 1 826 551 826 551 1 
! --------------------------------------------------------
